c instance by G2
c solution = 1111001001110111111111101
c Known solution cost is 1112 
p cnf 25 30
w 9 12 28 99 92 20 27 22 25 89 50 62 1 98 5 2 28 80 89 51 78 16 38 83 8
-1 -5 4 0
25 -23 -3 0
-7 -3 19 0
-5 -12 -2 0
10 24 -18 0
22 -12 -21 0
-13 -11 -4 0
12 -16 -18 0
-18 -19 7 0
-14 20 -25 0
-10 18 9 0
-4 2 -23 0
-6 -2 -17 0
-2 -9 5 0
-24 6 13 0
-21 -1 16 0
-1 -20 14 0
-14 1 -22 0
15 1 22 0
-12 -23 15 0
17 -7 -2 0
25 -17 3 0
-19 -7 3 0
19 10 2 0
21 5 -15 0
-22 17 -4 0
4 -21 8 0
-8 -17 24 0
-14 23 -3 0
11 -2 13 0
